words_train/words_475_SAT.qaiger
aag 65 16 0 1 49
26
28
18
30
32
16
22
2
6
20
4
12
10
24
14
8
130
34 21 18
36 35 21
38 36 23
40 38 25
42 40 27
44 42 29
46 44 31
48 45 30
50 49 47
52 50 14
54 51 15
56 43 28
58 57 45
60 58 12
62 41 26
64 63 43
66 64 10
68 39 24
70 69 41
72 70 8
74 71 9
76 20 19
78 77 35
80 79 4
82 81 7
84 80 6
86 37 22
88 87 39
90 89 85
92 91 83
94 92 75
96 95 73
98 96 67
100 59 13
102 65 11
104 103 101
106 104 99
108 107 61
110 109 55
112 111 53
114 33 16
116 32 17
118 117 115
120 119 46
122 118 47
124 123 121
126 125 112
128 124 113
130 129 127
i0 2 y[4]
i1 2 y[5]
i2 2 y[0]
i3 2 y[6]
i4 2 y[7]
i5 1 x[7]
i6 2 y[2]
i7 1 x[0]
i8 1 x[2]
i9 2 y[1]
i10 1 x[1]
i11 1 x[5]
i12 1 x[4]
i13 2 y[3]
i14 1 x[6]
i15 1 x[3]
o0 bv[0]
c
simplified
  <=
    add
      1
      or
        1
        subtract
          2 y
          1
    1 x
