words_train/words_475_SAT.qaiger.qdimacs
p cnf 65 148
a 1 2 3 4 5 6 7 8 0
e 9 10 11 12 13 14 15 16 17 18 19 20 21 22 23 24 25 26 27 28 29 30 31 32 33 34 35 36 37 38 39 40 41 42 43 44 45 46 47 48 49 50 51 52 53 54 55 56 57 58 59 60 61 62 63 64 65 0
10 -9 17 0
-10 -17 0
9 -17 0
17 10 18 0
-17 -18 0
-10 -18 0
-18 11 19 0
18 -19 0
-11 -19 0
-19 12 20 0
19 -20 0
-12 -20 0
-20 13 21 0
20 -21 0
-13 -21 0
-21 14 22 0
21 -22 0
-14 -22 0
-22 15 23 0
22 -23 0
-15 -23 0
22 -15 24 0
-22 -24 0
15 -24 0
24 23 25 0
-24 -25 0
-23 -25 0
-25 -7 26 0
25 -26 0
7 -26 0
25 7 27 0
-25 -27 0
-7 -27 0
21 -14 28 0
-21 -28 0
14 -28 0
28 22 29 0
-28 -29 0
-22 -29 0
-29 -6 30 0
29 -30 0
6 -30 0
20 -13 31 0
-20 -31 0
13 -31 0
31 21 32 0
-31 -32 0
-21 -32 0
-32 -5 33 0
32 -33 0
5 -33 0
19 -12 34 0
-19 -34 0
12 -34 0
34 20 35 0
-34 -35 0
-20 -35 0
-35 -4 36 0
35 -36 0
4 -36 0
35 4 37 0
-35 -37 0
-4 -37 0
-10 9 38 0
10 -38 0
-9 -38 0
38 17 39 0
-38 -39 0
-17 -39 0
39 -2 40 0
-39 -40 0
2 -40 0
40 3 41 0
-40 -41 0
-3 -41 0
-40 -3 42 0
40 -42 0
3 -42 0
18 -11 43 0
-18 -43 0
11 -43 0
43 19 44 0
-43 -44 0
-19 -44 0
44 42 45 0
-44 -45 0
-42 -45 0
45 41 46 0
-45 -46 0
-41 -46 0
-46 37 47 0
46 -47 0
-37 -47 0
47 36 48 0
-47 -48 0
-36 -48 0
-48 33 49 0
48 -49 0
-33 -49 0
29 6 50 0
-29 -50 0
-6 -50 0
32 5 51 0
-32 -51 0
-5 -51 0
51 50 52 0
-51 -52 0
-50 -52 0
-52 49 53 0
52 -53 0
-49 -53 0
53 30 54 0
-53 -54 0
-30 -54 0
54 27 55 0
-54 -55 0
-27 -55 0
55 26 56 0
-55 -56 0
-26 -56 0
16 -8 57 0
-16 -57 0
8 -57 0
-16 8 58 0
16 -58 0
-8 -58 0
58 57 59 0
-58 -59 0
-57 -59 0
59 -23 60 0
-59 -60 0
23 -60 0
-59 23 61 0
59 -61 0
-23 -61 0
61 60 62 0
-61 -62 0
-60 -62 0
62 -56 63 0
-62 -63 0
56 -63 0
-62 56 64 0
62 -64 0
-56 -64 0
64 63 65 0
-64 -65 0
-63 -65 0
65 0
